c CNF file corresponding to a (partial) station packing problem.
p cnf 7234 229
7218 7219 7220 7221 7222 7223 7224 7225 7226 7227 7228 7229 7230 7231 7232 7233 7234 0
-7218 -7219 0
-7218 -7220 0
-7218 -7221 0
-7218 -7222 0
-7218 -7223 0
-7218 -7224 0
-7218 -7225 0
-7218 -7226 0
-7218 -7227 0
-7218 -7228 0
-7218 -7229 0
-7218 -7230 0
-7218 -7231 0
-7218 -7232 0
-7218 -7233 0
-7218 -7234 0
-7219 -7220 0
-7219 -7221 0
-7219 -7222 0
-7219 -7223 0
-7219 -7224 0
-7219 -7225 0
-7219 -7226 0
-7219 -7227 0
-7219 -7228 0
-7219 -7229 0
-7219 -7230 0
-7219 -7231 0
-7219 -7232 0
-7219 -7233 0
-7219 -7234 0
-7220 -7221 0
-7220 -7222 0
-7220 -7223 0
-7220 -7224 0
-7220 -7225 0
-7220 -7226 0
-7220 -7227 0
-7220 -7228 0
-7220 -7229 0
-7220 -7230 0
-7220 -7231 0
-7220 -7232 0
-7220 -7233 0
-7220 -7234 0
-7221 -7222 0
-7221 -7223 0
-7221 -7224 0
-7221 -7225 0
-7221 -7226 0
-7221 -7227 0
-7221 -7228 0
-7221 -7229 0
-7221 -7230 0
-7221 -7231 0
-7221 -7232 0
-7221 -7233 0
-7221 -7234 0
-7222 -7223 0
-7222 -7224 0
-7222 -7225 0
-7222 -7226 0
-7222 -7227 0
-7222 -7228 0
-7222 -7229 0
-7222 -7230 0
-7222 -7231 0
-7222 -7232 0
-7222 -7233 0
-7222 -7234 0
-7223 -7224 0
-7223 -7225 0
-7223 -7226 0
-7223 -7227 0
-7223 -7228 0
-7223 -7229 0
-7223 -7230 0
-7223 -7231 0
-7223 -7232 0
-7223 -7233 0
-7223 -7234 0
-7224 -7225 0
-7224 -7226 0
-7224 -7227 0
-7224 -7228 0
-7224 -7229 0
-7224 -7230 0
-7224 -7231 0
-7224 -7232 0
-7224 -7233 0
-7224 -7234 0
-7225 -7226 0
-7225 -7227 0
-7225 -7228 0
-7225 -7229 0
-7225 -7230 0
-7225 -7231 0
-7225 -7232 0
-7225 -7233 0
-7225 -7234 0
-7226 -7227 0
-7226 -7228 0
-7226 -7229 0
-7226 -7230 0
-7226 -7231 0
-7226 -7232 0
-7226 -7233 0
-7226 -7234 0
-7227 -7228 0
-7227 -7229 0
-7227 -7230 0
-7227 -7231 0
-7227 -7232 0
-7227 -7233 0
-7227 -7234 0
-7228 -7229 0
-7228 -7230 0
-7228 -7231 0
-7228 -7232 0
-7228 -7233 0
-7228 -7234 0
-7229 -7230 0
-7229 -7231 0
-7229 -7232 0
-7229 -7233 0
-7229 -7234 0
-7230 -7231 0
-7230 -7232 0
-7230 -7233 0
-7230 -7234 0
-7231 -7232 0
-7231 -7233 0
-7231 -7234 0
-7232 -7233 0
-7232 -7234 0
-7233 -7234 0
1 2 3 4 5 6 7 8 9 10 11 12 13 14 0
-1 -2 0
-1 -3 0
-1 -4 0
-1 -5 0
-1 -6 0
-1 -7 0
-1 -8 0
-1 -9 0
-1 -10 0
-1 -11 0
-1 -12 0
-1 -13 0
-1 -14 0
-2 -3 0
-2 -4 0
-2 -5 0
-2 -6 0
-2 -7 0
-2 -8 0
-2 -9 0
-2 -10 0
-2 -11 0
-2 -12 0
-2 -13 0
-2 -14 0
-3 -4 0
-3 -5 0
-3 -6 0
-3 -7 0
-3 -8 0
-3 -9 0
-3 -10 0
-3 -11 0
-3 -12 0
-3 -13 0
-3 -14 0
-4 -5 0
-4 -6 0
-4 -7 0
-4 -8 0
-4 -9 0
-4 -10 0
-4 -11 0
-4 -12 0
-4 -13 0
-4 -14 0
-5 -6 0
-5 -7 0
-5 -8 0
-5 -9 0
-5 -10 0
-5 -11 0
-5 -12 0
-5 -13 0
-5 -14 0
-6 -7 0
-6 -8 0
-6 -9 0
-6 -10 0
-6 -11 0
-6 -12 0
-6 -13 0
-6 -14 0
-7 -8 0
-7 -9 0
-7 -10 0
-7 -11 0
-7 -12 0
-7 -13 0
-7 -14 0
-8 -9 0
-8 -10 0
-8 -11 0
-8 -12 0
-8 -13 0
-8 -14 0
-9 -10 0
-9 -11 0
-9 -12 0
-9 -13 0
-9 -14 0
-10 -11 0
-10 -12 0
-10 -13 0
-10 -14 0
-11 -12 0
-11 -13 0
-11 -14 0
-12 -13 0
-12 -14 0
-13 -14 0
